1360
5
6
7
8
9
10
11
12
13
15
14
24
23
25
22
26
27
28
29
32
31
30
125
124
123
122
154
155
153
156
152
151
178
150
149
148
147
141
142
143
146
145
144
200
199
198
197
194
195
196
201
202
203
204
205
206
207
212
213
216
217
220
221
222
219
218
215
214
211
210
209
208
253
252
255
254
257
258
259
260
261
262
263
264
265
140
139
138
266
267
137
136
268
135
269
270
134
133
132
131
130
129
128
21
20
19
18
17
16
271
272
273
274
275
276
277
4
279
278
248
249
250
251
230
229
228
227
226
225
223
224
234
235
236
233
232
237
238
231
246
